c This Formular is generated by mcnf
c
c    horn? no 
c    forced? no 
c    mixed sat? no 
c    clause length = 3 
c
p cnf 20  91 
 -20 -1 7 0
-5 13 7 0
18 15 -4 0
-3 11 19 0
-2 -1 -14 0
-18 20 16 0
8 9 -16 0
3 -13 -15 0
-12 3 16 0
13 8 16 0
6 -4 8 0
-2 -7 18 0
11 17 -20 0
-2 18 -14 0
1 -8 16 0
-15 -17 -11 0
-18 2 15 0
-13 -4 -10 0
16 8 9 0
5 15 14 0
-4 20 -19 0
17 16 1 0
10 6 19 0
-10 5 14 0
-4 2 -17 0
-12 -14 -19 0
8 -11 14 0
-13 20 8 0
-18 11 14 0
-20 13 -4 0
-16 17 8 0
13 16 7 0
17 3 16 0
-6 15 -18 0
17 -4 13 0
17 5 -3 0
20 19 1 0
20 4 5 0
13 2 6 0
-6 1 8 0
7 19 -9 0
%
0

90 20 48 55 27 72 14 27 5 19 40 48 31 29 30 61 28 45 45 51
